# UHF/6-31G(d) GFInput Pop=Full IOP(6/80=1)

Węgiel

0 3
C 0.0 0.0 0.0


