# RHF/6-31G(d) GFInput Opt Pop=Full IOP(6/80=1)

Optymalizacja cząsteczki formamidu

0 1
C     0.000000     0.000000     0.000000
O     0.000000     0.000000     1.220000
H     0.943102     0.000000    -0.544500
N    -1.264397     0.000000    -0.730000
H    -1.076186     0.000000    -1.742658
H    -1.804506    -0.840991    -0.481171

