# RHF/6-31G(d) GFInput Freq Pop=Full IOP(6/80=1)

Freq analiza optymalnego formamida

0 1
6   -0.011909   -0.035090    0.008109
8   -0.006530   -0.154069    1.195004
1    0.873827    0.267308   -0.552038
7   -1.080817   -0.251062   -0.785050
1   -1.033314   -0.136904   -1.770191
1   -1.943244   -0.531173   -0.374163

