# UHF/6-31G(d) GFInput Pop=Full IOP(6/80=1)

Wodór

0 2
H 0.0 0.0 0.0


