# UHF/6-31G(d) GFInput Pop=Full IOP(6/80=1)

Azot

0 4
N 0.0 0.0 0.0


