# UHF/6-31G(d) GFInput Pop=Full IOP(6/80=1)

Tlen

0 3
O 0.0 0.0 0.0


