#P RHF/6-31G(d) GFInput Pop=Full IOP(6/80=1)

obl. energii RHF dla N2, geom. eksperym.

0 1
N    
N 1   1.098


