#P UHF/6-31G(d) Opt GFInput Pop=Full IOP(6/80=1)


0 3
O
O 1 1.21

