# UB3LYP/6-311G(d,p) GFInput Pop=Full IOP(6/80=1)

c3h7 rodnik

0 2
C    -0.079593     0.018826    -0.080189
C     0.074867     0.111703     1.401895
C     1.420089    -0.009236     2.038861
H    -0.757440     0.484055     1.994564
H     1.362749    -0.013997     3.132935
H     1.932411    -0.932104     1.724764
H     2.092036     0.820211     1.752209
H    -1.123087    -0.131069    -0.379965
H     0.272563     0.932338    -0.595885
H     0.514808    -0.809176    -0.493316

