# B3LYP/6-311G(d,p) GFInput Pop=Full IOP(6/80=1)

c3h8 zamkniętopowłokowa cząsteczka

0 1
C    -0.005665    -0.000012    -0.005194
C    -0.052863    -0.000009     1.528496
C     1.421587     0.000016    -0.558768
H    -0.547729    -0.877812    -0.383369
H    -0.547763     0.877762    -0.383379
H     1.430338    -0.000014    -1.655842
H     1.978939     0.884098    -0.223181
H     1.979005    -0.884003    -0.223127
H    -1.085826     0.000091     1.895861
H     0.449050    -0.885831     1.937580
H     0.449219     0.885713     1.937591

