# UB3LYP/6-311G(d,p) GFInput Pop=Full IOP(6/80=1)

ch3ch_conh_ch3 rodnik

0 2
C     4.543989    -2.901340     4.995933
N     3.452463    -3.556686     4.305398
C     2.814440    -2.992490     3.220962
C     1.735074    -3.795804     2.649225
C     0.959336    -3.315221     1.478001
O     3.134108    -1.888028     2.767469
H     5.460195    -3.504531     4.961980
H     4.723173    -1.952741     4.487809
H     4.294434    -2.702784     6.046171
H     3.146484    -4.462068     4.630397
H     1.495201    -4.762653     3.089383
H    -0.113130    -3.235164     1.711511
H     1.327693    -2.335505     1.164935
H     1.036767    -4.013134     0.630682

