# B3LYP/6-311G(d,p) GFInput Pop=Full IOP(6/80=1)

ch3ch2_conh_ch3 zamkniętopowłokowa cząsteczka

0 1
C     4.613246    -2.982599     4.868557
N     3.376222    -3.511133     4.323850
C     2.648700    -2.856681     3.366794
O     3.002249    -1.790702     2.875971
C     1.338792    -3.540218     2.970775
H     5.443731    -3.682907     4.719157
H     4.828047    -2.054565     4.336886
H     4.521166    -2.768458     5.940614
H     3.022004    -4.384429     4.685583
H     0.543888    -3.087523     3.580091
H     1.361613    -4.606489     3.231516
C     1.020788    -3.348363     1.485995
H     0.028335    -3.743763     1.245772
H     1.050581    -2.285718     1.232882
H     1.754754    -3.862123     0.855505

