# UB3LYP/6-311G(d,p) GFInput Pop=Full IOP(6/80=1)

ch3ch_nhco_ch3_rad rodnik

0 2
C     4.560182    -2.992620     4.857959
C     3.344178    -3.855283     4.566160
N     2.252891    -3.640525     5.389958
C     1.037826    -4.288839     5.252761
C    -0.002434    -4.143176     6.306924
O     3.319625    -4.682618     3.663461
H     4.445864    -2.345214     5.733952
H     5.427981    -3.642090     5.009806
H     4.773646    -2.366417     3.984978
H     2.333804    -2.932263     6.108220
H     1.020692    -5.061416     4.497061
H    -0.972824    -4.485245     5.933812
H     0.217003    -4.728426     7.218225
H    -0.124224    -3.096980     6.625384

