# UB3LYP/6-311G(d,p) GFInput Pop=Full IOP(6/80=1)

gly_3 rodnik

0 2
C     4.477830    -2.770290     4.918818
C     3.253861    -3.494438     4.392541
O     2.636285    -3.134540     3.400879
N     2.869717    -4.611760     5.119006
C     1.799228    -5.402201     4.817102
C     1.573820    -6.525357     5.710405
O     2.324560    -6.727161     6.678750
N     0.498950    -7.324274     5.414207
C     0.147590    -8.485846     6.206565
H     4.906937    -3.229563     5.814245
H     5.239595    -2.742719     4.133085
H     4.207528    -1.733888     5.145273
H     3.382202    -4.913689     5.944848
H     1.210801    -5.135759     3.949833
H     0.189450    -9.404997     5.608964
H    -0.061191    -7.098168     4.604923
H    -0.858792    -8.389133     6.632521
H     0.872449    -8.556098     7.018583

