# UB3LYP/6-311G(d,p) GFInput Pop=Full IOP(6/80=1)

wodor

0 2
H 0.0 0.0 0.0

