%chk=n2_B3LYP.chk
#P B3LYP/6-31G(d) Opt GFInput Pop=Full IOP(6/80=1)

optymalizacja geometrii n2 metoda B3LYP

0 1
N    
N 1   1.098


