# UB3LYP/6-311G(d,p) GFInput Pop=Full IOP(6/80=1)

komentarz rodnik

0 2

