%oldchk=n2_hf.chk
%chk=n2p_sgm_hf.chk
#P HF/6-31G(d) guess=(read,alter) GFInput Pop=Full IOP(6/80=1)

n2 energia jonu w stanie Sigma

1 2
N    
N 1   1.0784


5 7

