#p UB3LYP/6-31G Opt Pop=Full

PO optymalizacja baza 6-31G

0 2
P  0.0 0.0 0.0
O  0.0 0.0 1.5

