#p UB3LYP/6-311+G(3df) Opt Pop=Full

PO optymalizacja baza 6-311+G(3df)

0 2
P  0.0 0.0 0.0
O  0.0 0.0 1.5

