#p UB3LYP/cc-pVQZ Opt Pop=Full

PO optymalizacja baza cc-pVQZ

0 2
P  0.0 0.0 0.0
O  0.0 0.0 1.5

