#p UB3LYP/Gen Opt Pop=Full

PO optymalizacja baza maug-cc-pV(Q+d)Z

0 2
P  0.0 0.0 0.0
O  0.0 0.0 1.5

O     0
S    8   1.00
  11720.0000000              0.0007100
   1759.0000000              0.0054700
    400.8000000              0.0278370
    113.7000000              0.1048000
     37.0300000              0.2830620
     13.2700000              0.4487190
      5.0250000              0.2709520
      1.0130000              0.0154580
S    8   1.00
  11720.0000000             -0.0001600
   1759.0000000             -0.0012630
    400.8000000             -0.0062670
    113.7000000             -0.0257160
     37.0300000             -0.0709240
     13.2700000             -0.1654110
      5.0250000             -0.1169550
      1.0130000              0.5573680
S    1   1.00
      0.3023000              1.0000000
S    1   1.00
      0.0789600              1.0000000
P    3   1.00
     17.7000000              0.0430180
      3.8540000              0.2289130
      1.0460000              0.5087280
P    1   1.00
      0.2753000              1.0000000
P    1   1.00
      0.0685600              1.0000000
D    1   1.00
      1.1850000              1.0000000
****
P     0
S    11   1.00
  94840.0000000              0.255509D-03
  14220.0000000              0.198193D-02
   3236.0000000              0.102760D-01
    917.1000000              0.414823D-01
    299.5000000              0.131984D+00
    108.1000000              0.308662D+00
     42.1800000              0.420647D+00
     17.2800000              0.222878D+00
      4.8580000              0.164035D-01
      1.8180000             -0.254255D-02
      0.3372000              0.748050D-03
S    11   1.00
  94840.0000000             -0.696939D-04
  14220.0000000             -0.535266D-03
   3236.0000000             -0.283709D-02
    917.1000000             -0.113983D-01
    299.5000000             -0.392929D-01
    108.1000000             -0.996364D-01
     42.1800000             -0.197983D+00
     17.2800000             -0.114860D+00
      4.8580000              0.518595D+00
      1.8180000              0.601847D+00
      0.3372000              0.368612D-01
S    11   1.00
  94840.0000000              0.191199D-04
  14220.0000000              0.147223D-03
   3236.0000000              0.777912D-03
    917.1000000              0.314546D-02
    299.5000000              0.108200D-01
    108.1000000              0.279957D-01
     42.1800000              0.563978D-01
     17.2800000              0.358190D-01
      4.8580000             -0.193387D+00
      1.8180000             -0.372097D+00
      0.3372000              0.624246D+00
S    1   1.00
      0.1232000              1.0000000
S    1   1.00
      0.0417000              1.0000000
P    7   1.00
    370.5000000              0.395005D-02
     87.3300000              0.302492D-01
     27.5900000              0.129554D+00
     10.0000000              0.327594D+00
      3.8250000              0.456992D+00
      1.4940000              0.253086D+00
      0.3921000              0.168798D-01
P    7   1.00
    370.5000000             -0.959832D-03
     87.3300000             -0.711177D-02
     27.5900000             -0.327122D-01
     10.0000000             -0.795784D-01
      3.8250000             -0.135016D+00
      1.4940000             -0.910585D-02
      0.3921000              0.537802D+00
P    1   1.00
      0.1186000              1.0000000
P    1   1.00
      0.0343000              1.0000000
D    1   1.00
      2.506                  1.0000000
D    1   1.00
      0.374                  1.0000000
****

