#p UB3LYP/STO-3G Opt Pop=Full

PO optymalizacja baza STO-3G

0 2
P  0.0 0.0 0.0
O  0.0 0.0 1.5

